language ESSENCE' 1.0

letting fixed be 
[
    [7,0,0,4,0,6,0,0,1],
    [0,2,0,8,0,0,0,0,5],
    [1,0,0,3,0,0,0,9,0],
    [3,0,4,0,0,5,0,0,0],
    [0,7,0,0,3,0,0,1,0],
    [0,0,0,6,0,0,3,0,9],
    [0,3,0,5,0,0,0,0,8],
    [5,0,0,0,0,3,0,4,0],
    [6,0,0,1,0,9,0,0,3]
]